c
c   Description du monde d'Hitman
c
p cnf 546 42
1 0
92 0
183 0
274 0
365 0
456 0
14 0
105 0
196 0
287 0
378 0
469 0
27 0
118 0
209 0
300 0
391 0
482 0
40 0
131 0
222 0
313 0
404 0
495 0
53 0
144 0
235 0
326 0
417 0
508 0
66 0
157 0
248 0
339 0
430 0
521 0
79 0
170 0
261 0
352 0
443 0
534 0